17069
100001010001001001001000110010
20 25 20 14 20 5 0 24 14 17 5 28 28 20 14 28 14 17 25 11 14 11 11 0 25 20 17 24 5 24 24 25 14 25 20 20 5 24 17 14 11 14 11 11 24 14 17 20 11 28 11 17 14 5 20 20 14 25 11 14 0 5 20 0 0 25 5 0 24 5 14 20 5 17 24 14 25 20 0 24 20 17 20 17 7 17 17 17 20 5 17 24 17 11 7 5 17 28 25 20 28 0 17 25 17 0 0 11 14 28 14 17 17 0 0 17 5 24 11 5 5 0 25 20 20 0 24 5 11 11 0 11 5 7 28 14 0 25 20 17 0 28 20 14 20 25 25 5 0 5 